c 1 R
c 2 g_10_1_1_1
c 3 g_10_2_3_2
c 4 g_10_2_3_4
c 5 g_10_3_1_3
c 6 g_1_1_4_3
c 7 g_1_2_2_2
c 8 g_1_2_3_3_2
c 9 g_1_3
c 10 g_2_3_1_2
c 11 g_2_4_2
c 12 g_2_6_6_3
c 13 g_2_9_6_2
c 14 g_3_1_1
c 15 g_3_2_1_3
c 16 g_3_3_2_1
c 17 g_4_10_1
c 18 g_4_4_1_2_1
c 19 g_4_6_1_1_1
c 20 g_4_8_2_4
c 21 g_4_8_2_5
c 22 g_5_1_2_1
c 23 g_5_1_2_4
c 24 g_5_2_1_1
c 25 g_5_2_3_2
c 26 g_5_3_2_2
c 27 g_5_5_2_4
c 28 g_6_2_1_4
c 29 g_6_3_1_2
c 30 g_6_3_2_4
c 31 g_6_4_3_1
c 32 g_6_5_4_2
c 33 g_7_1_1_2
c 34 g_7_1_1_3
c 35 g_7_1_3_3
c 36 g_7_3_5_2
c 37 g_7_4_3_2
c 38 g_7_4_4_1
c 39 g_7_6_3_1_1
c 40 g_7_6_5
c 41 g_8_4_7_2
c 42 g_8_7_1
c 43 g_8_7_2_2_4
c 44 o_10_3
c 45 o_10_4_2
c 46 o_1_1_1_2
c 47 o_1_1_3
c 48 o_1_2_4
c 49 o_1_2_6
c 50 o_1_3_4
c 51 o_1_3_4_1
c 52 o_1_3_6
c 53 o_1_3_7
c 54 o_2
c 55 o_2_1_3_1
c 56 o_2_1_4_1
c 57 o_2_2_1
c 58 o_2_2_4
c 59 o_2_4_2_3
c 60 o_2_5_1_2
c 61 o_2_5_2_3
c 62 o_2_7_2
c 63 o_2_8_6
c 64 o_3_1_1_2_1
c 65 o_3_1_2_1_2
c 66 o_3_1_2_2
c 67 o_3_1_2_2_1
c 68 o_3_2
c 69 o_3_2_2
c 70 o_3_2_3_2
c 71 o_3_2_5_2
c 72 o_3_3_1
c 73 o_3_3_3_1
c 74 o_3_4
c 75 o_3_4_1_1
c 76 o_3_4_3
c 77 o_4_1_1_1
c 78 o_4_1_3_1
c 79 o_4_2
c 80 o_4_2_6
c 81 o_4_3_4
c 82 o_4_5
c 83 o_4_6
c 84 o_4_7_3
c 85 o_4_8
c 86 o_5_3_5
c 87 o_5_4
c 88 o_5_5_1
c 89 o_6_1
c 90 o_6_2_3
c 91 o_6_5_7
c 92 o_7
c 93 o_7_2
c 94 o_7_2_1
c 95 o_7_2_5
c 96 o_7_3
c 97 o_8_1
c 98 o_8_1_2
c 99 o_8_2
c 100 o_8_3
c 101 o_8_5_2
c 102 o_9_1_1
c 103 o_9_2
c 104 o_9_2_5
p cnf 104 61
-27 -88 0
-68 -69 0
74 -76 0
100 0
-9 -49 0
-6 -48 0
-47 52 0
49 -52 0
-7 51 0
-46 50 0
-28 91 0
-29 89 0
-90 -91 0
12 55 0
-57 -59 0
54 -61 0
-10 62 0
-54 56 0
-11 58 0
-54 -60 0
15 75 0
67 73 0
71 -75 0
66 74 0
-70 72 0
64 -74 0
-78 84 0
18 -83 0
80 81 0
1 -85 0
17 77 0
-19 -82 0
-35 -92 0
36 -94 0
37 39 0
34 92 0
33 -96 0
-92 -95 0
38 40 0
26 87 0
22 -24 0
23 -25 0
-86 87 0
-102 -104 0
-3 44 0
-2 45 0
-97 99 0
41 100 0
43 101 0
-1 16 0
63 79 0
-31 50 0
93 98 0
-4 103 0
54 65 0
-20 32 0
-42 53 0
5 -40 0
-14 103 0
13 21 0
-8 30 0
